306 5
10 10 10 10 10 

0 0 0 0 0 0 5 2 14 26 38 50 
0 0 0 0 0 0 3 3 6 164 
2 0 0 0 6 0 1 4 
3 0 0 0 9 0 1 5 
8 0 0 0 4 0 1 7 
4 0 0 0 7 0 3 12 10 9 
4 0 0 0 10 0 2 12 8 
1 0 0 0 10 0 1 9 
6 0 0 0 10 0 1 11 
6 0 0 0 9 0 1 11 
8 0 0 0 5 0 1 13 
4 0 0 0 5 0 1 13 
0 0 0 0 0 0 1 62 
0 0 0 0 0 0 2 15 16 
9 5 0 0 0 0 3 24 18 17 
2 9 0 0 0 0 1 17 
1 7 0 0 0 0 1 19 
7 9 0 0 0 0 1 19 
6 7 0 0 0 0 1 20 
1 10 0 0 0 0 1 21 
4 4 0 0 0 0 1 22 
7 8 0 0 0 0 2 23 89 
6 9 0 0 0 0 1 25 
5 7 0 0 0 0 1 25 
0 0 0 0 0 0 1 62 
0 0 0 0 0 0 2 27 31 
9 0 0 3 0 0 2 36 28 
4 0 0 9 0 0 2 29 249 
1 0 0 8 0 0 2 35 30 
9 0 0 6 0 0 1 32 
1 0 0 10 0 0 2 35 34 
1 0 0 8 0 0 1 33 
6 0 0 9 0 0 1 34 
9 0 0 8 0 0 1 37 
10 0 0 9 0 0 1 37 
5 0 0 5 0 0 1 37 
0 0 0 0 0 0 1 62 
0 0 0 0 0 0 1 39 
7 0 2 0 0 0 1 40 
2 0 8 0 0 0 2 43 41 
2 0 9 0 0 0 2 44 42 
8 0 9 0 0 0 2 48 45 
8 0 10 0 0 0 2 48 45 
2 0 7 0 0 0 2 48 46 
1 0 7 0 0 0 1 46 
9 0 9 0 0 0 2 47 235 
4 0 10 0 0 0 1 49 
6 0 4 0 0 0 1 49 
0 0 0 0 0 0 1 62 
0 0 0 0 0 0 1 51 
1 0 2 0 0 0 2 55 52 
2 0 10 0 0 0 2 53 85 
1 0 10 0 0 0 2 60 54 
5 0 9 0 0 0 1 56 
9 0 5 0 0 0 1 56 
4 0 9 0 0 0 2 58 57 
4 0 8 0 0 0 1 59 
10 0 10 0 0 0 1 59 
3 0 5 0 0 0 1 61 
7 0 7 0 0 0 1 61 
0 0 0 0 0 0 1 62 
0 0 0 0 0 0 5 63 75 87 99 111 
0 0 0 0 0 0 1 64 
9 0 7 0 0 0 2 73 65 
9 0 4 0 0 0 1 66 
10 0 7 0 0 0 1 67 
7 0 10 0 0 0 2 70 68 
3 0 4 0 0 0 2 71 69 
7 0 9 0 0 0 1 72 
7 0 10 0 0 0 1 71 
1 0 8 0 0 0 1 74 
6 0 9 0 0 0 2 74 134 
6 0 7 0 0 0 1 74 
0 0 0 0 0 0 1 123 
0 0 0 0 0 0 2 76 77 
1 0 2 0 0 0 1 78 
4 0 10 0 0 0 1 78 
9 0 6 0 0 0 1 79 
5 0 7 0 0 0 2 82 80 
4 0 10 0 0 0 1 81 
8 0 5 0 0 0 2 85 83 
2 0 7 0 0 0 1 83 
3 0 8 0 0 0 2 84 194 
4 0 10 0 0 0 1 86 
6 0 10 0 0 0 1 86 
0 0 0 0 0 0 1 123 
0 0 0 0 0 0 3 88 94 96 
3 0 1 0 0 0 2 93 89 
4 0 8 0 0 0 1 90 
4 0 8 0 0 0 1 91 
1 0 5 0 0 0 2 92 102 
2 0 9 0 0 0 1 95 
1 0 8 0 0 0 1 95 
7 0 10 0 0 0 1 95 
4 0 8 0 0 0 1 97 
1 0 9 0 0 0 1 97 
7 0 9 0 0 0 1 98 
0 0 0 0 0 0 1 123 
0 0 0 0 0 0 3 100 104 107 
10 0 0 0 0 2 1 101 
4 0 0 0 0 7 1 102 
10 0 0 0 0 7 2 109 103 
9 0 0 0 0 7 1 105 
9 0 0 0 0 10 2 109 108 
4 0 0 0 0 10 1 106 
8 0 0 0 0 10 1 108 
3 0 0 0 0 7 1 108 
2 0 0 0 0 9 2 110 226 
1 0 0 0 0 6 1 110 
0 0 0 0 0 0 1 123 
0 0 0 0 0 0 3 112 118 121 
6 0 7 0 0 0 2 113 261 
10 0 3 0 0 0 1 114 
3 0 10 0 0 0 1 115 
4 0 5 0 0 0 1 116 
9 0 10 0 0 0 2 120 117 
1 0 7 0 0 0 1 119 
2 0 10 0 0 0 1 119 
7 0 9 0 0 0 1 122 
1 0 8 0 0 0 1 122 
9 0 6 0 0 0 1 122 
0 0 0 0 0 0 1 123 
0 0 0 0 0 0 5 124 136 148 160 172 
0 0 0 0 0 0 2 125 131 
9 0 0 0 0 2 4 134 129 126 194 
2 0 0 0 0 10 1 127 
9 0 0 0 0 6 1 128 
5 0 0 0 0 6 1 130 
9 0 0 0 0 10 1 130 
6 0 0 0 0 10 1 132 
6 0 0 0 0 10 1 132 
7 0 0 0 0 6 1 133 
9 0 0 0 0 6 1 135 
4 0 0 0 0 9 1 135 
0 0 0 0 0 0 1 184 
0 0 0 0 0 0 1 137 
2 2 0 0 0 0 1 138 
4 7 0 0 0 0 1 139 
4 7 0 0 0 0 3 144 142 140 
3 10 0 0 0 0 1 141 
10 7 0 0 0 0 1 143 
3 9 0 0 0 0 1 143 
2 4 0 0 0 0 2 145 228 
6 10 0 0 0 0 1 146 
6 9 0 0 0 0 1 147 
7 10 0 0 0 0 1 147 
0 0 0 0 0 0 1 184 
0 0 0 0 0 0 2 149 152 
8 0 0 0 4 0 1 150 
5 0 0 0 6 0 1 151 
6 0 0 0 6 0 2 154 153 
7 0 0 0 10 0 2 154 153 
1 0 0 0 5 0 1 155 
3 0 0 0 8 0 1 155 
1 0 0 0 6 0 1 156 
6 0 0 0 10 0 2 158 157 
6 0 0 0 10 0 1 159 
4 0 0 0 10 0 1 159 
0 0 0 0 0 0 1 184 
0 0 0 0 0 0 1 161 
10 0 0 0 0 1 1 162 
9 0 0 0 0 10 1 163 
8 0 0 0 0 6 3 168 166 164 
8 0 0 0 0 8 2 170 165 
3 0 0 0 0 9 1 167 
6 0 0 0 0 7 1 167 
6 0 0 0 0 8 1 169 
7 0 0 0 0 10 1 170 
6 0 0 0 0 6 1 171 
10 0 0 0 0 10 1 171 
0 0 0 0 0 0 1 184 
0 0 0 0 0 0 3 173 176 182 
10 0 0 4 0 0 1 174 
10 0 0 3 0 0 1 175 
10 0 0 7 0 0 1 177 
7 0 0 10 0 0 1 177 
6 0 0 8 0 0 2 181 178 
3 0 0 10 0 0 1 179 
1 0 0 8 0 0 1 180 
9 0 0 8 0 0 1 183 
1 0 0 10 0 0 1 183 
4 0 0 7 0 0 1 183 
0 0 0 0 0 0 1 184 
0 0 0 0 0 0 5 185 197 209 221 233 
0 0 0 0 0 0 2 186 188 
9 0 0 0 7 0 1 187 
7 0 0 0 6 0 2 191 189 
1 0 0 0 5 0 2 191 189 
10 0 0 0 10 0 1 190 
5 0 0 0 7 0 2 195 192 
3 0 0 0 8 0 2 195 192 
5 0 0 0 7 0 1 193 
1 0 0 0 9 0 1 194 
5 0 0 0 10 0 1 196 
3 0 0 0 6 0 1 196 
0 0 0 0 0 0 1 245 
0 0 0 0 0 0 3 198 203 204 
6 0 0 4 0 0 1 199 
1 0 0 7 0 0 1 200 
9 0 0 3 0 0 2 207 201 
7 0 0 8 0 0 1 202 
6 0 0 10 0 0 1 205 
5 0 0 6 0 0 1 205 
7 0 0 9 0 0 1 205 
7 0 0 8 0 0 1 206 
9 0 0 10 0 0 1 208 
6 0 0 10 0 0 1 208 
0 0 0 0 0 0 1 245 
0 0 0 0 0 0 2 210 219 
5 0 0 0 0 3 1 211 
5 0 0 0 0 10 1 212 
10 0 0 0 0 8 1 213 
5 0 0 0 0 2 2 216 214 
8 0 0 0 0 9 1 215 
6 0 0 0 0 10 1 217 
1 0 0 0 0 6 1 218 
1 0 0 0 0 8 1 220 
9 0 0 0 0 10 1 220 
6 0 0 0 0 9 1 220 
0 0 0 0 0 0 1 245 
0 0 0 0 0 0 2 222 223 
7 1 0 0 0 0 1 224 
2 5 0 0 0 0 1 224 
3 10 0 0 0 0 1 225 
1 9 0 0 0 0 2 227 226 
6 8 0 0 0 0 1 228 
6 10 0 0 0 0 1 228 
9 9 0 0 0 0 2 230 229 
10 6 0 0 0 0 1 231 
1 8 0 0 0 0 1 231 
1 9 0 0 0 0 1 232 
0 0 0 0 0 0 1 245 
0 0 0 0 0 0 1 234 
1 0 0 3 0 0 1 235 
2 0 0 5 0 0 1 236 
8 0 0 10 0 0 3 241 240 237 
6 0 0 5 0 0 1 238 
1 0 0 10 0 0 1 239 
2 0 0 10 0 0 1 242 
9 0 0 9 0 0 1 243 
9 0 0 6 0 0 1 242 
7 0 0 7 0 0 1 244 
6 0 0 10 0 0 1 244 
0 0 0 0 0 0 1 245 
0 0 0 0 0 0 5 246 258 270 282 294 
0 0 0 0 0 0 2 247 255 
5 0 0 0 4 0 2 251 248 
8 0 0 0 9 0 2 254 249 
5 0 0 0 4 0 1 250 
10 0 0 0 8 0 1 252 
6 0 0 0 9 0 1 252 
10 0 0 0 9 0 1 253 
10 0 0 0 6 0 1 256 
2 0 0 0 10 0 1 256 
3 0 0 0 10 0 1 256 
10 0 0 0 6 0 1 257 
0 0 0 0 0 0 1 306 
0 0 0 0 0 0 3 259 263 264 
4 0 0 0 5 0 2 268 260 
10 0 0 0 4 0 1 261 
5 0 0 0 10 0 1 262 
10 0 0 0 7 0 1 265 
1 0 0 0 9 0 1 265 
4 0 0 0 8 0 2 268 267 
10 0 0 0 9 0 1 266 
7 0 0 0 7 0 1 267 
10 0 0 0 7 0 1 269 
4 0 0 0 9 0 1 269 
0 0 0 0 0 0 1 306 
0 0 0 0 0 0 1 271 
6 0 0 0 5 0 1 272 
3 0 0 0 5 0 1 273 
4 0 0 0 5 0 3 276 275 274 
4 0 0 0 10 0 1 277 
10 0 0 0 9 0 1 277 
5 0 0 0 8 0 1 277 
8 0 0 0 10 0 2 280 278 
9 0 0 0 3 0 1 279 
6 0 0 0 10 0 1 281 
10 0 0 0 10 0 1 281 
0 0 0 0 0 0 1 306 
0 0 0 0 0 0 1 283 
7 0 0 0 0 3 2 285 284 
8 0 0 0 0 10 2 288 286 
3 0 0 0 0 10 2 288 287 
5 0 0 0 0 10 2 289 287 
10 0 0 0 0 8 1 290 
1 0 0 0 0 9 1 289 
1 0 0 0 0 5 1 291 
6 0 0 0 0 7 1 291 
10 0 0 0 0 7 1 292 
10 0 0 0 0 6 1 293 
0 0 0 0 0 0 1 306 
0 0 0 0 0 0 2 295 296 
6 0 0 0 0 2 2 300 297 
10 0 0 0 0 9 2 300 299 
3 0 0 0 0 10 1 298 
2 0 0 0 0 5 1 299 
8 0 0 0 0 7 2 303 301 
6 0 0 0 0 9 2 303 301 
4 0 0 0 0 9 1 302 
4 0 0 0 0 7 1 304 
5 0 0 0 0 7 1 304 
8 0 0 0 0 10 1 305 
0 0 0 0 0 0 1 306 
0 0 0 0 0 0 0 
